5340.0
[830, 599, 473, 426, 603, 732, 245, 945, 249, 539, 421, 643, 269, 743, 657, 845, 463, 775, 262, 770, 669, 37, 236, 708, 479, 211, 469, 147, 989, 23, 446, 568, 736, 53, 658, 32, 137, 70, 159, 198, 967]